51	3

10	12	10	

0	0	0	0	3	2	3	4	
9	5	2	2	2	6	7	
4	5	4	3	2	6	7	
1	3	5	2	3	5	7	11	
4	3	5	2	2	8	18	
8	4	1	4	2	10	13	
2	5	5	4	2	8	18	
4	3	2	2	2	9	15	
8	2	2	2	1	14	
3	4	1	4	2	12	15	
3	2	4	4	2	13	18	
5	1	5	4	1	16	
1	3	3	2	1	15	
6	5	3	3	1	19	
2	1	4	4	1	17	
4	2	4	6	3	20	23	24	
3	3	2	3	1	19	
2	3	2	4	1	21	
6	1	6	2	1	25	
6	1	0	4	1	25	
1	5	5	4	1	22	
2	4	5	4	1	23	
3	3	2	1	1	26	
2	2	2	1	1	26	
4	0	1	3	1	27	
3	2	2	2	3	27	28	29	
9	5	2	2	2	31	32	
4	5	4	3	2	31	32	
1	3	5	2	3	30	32	36	
4	3	5	2	2	33	43	
8	4	1	4	2	35	38	
2	5	5	4	2	33	43	
4	3	2	2	2	34	40	
8	2	2	2	1	39	
3	4	1	4	2	37	40	
3	2	4	4	2	38	43	
5	1	5	4	1	41	
1	3	3	2	1	40	
6	5	3	3	1	44	
2	1	4	4	1	42	
4	2	4	6	3	45	48	49	
3	3	2	3	1	44	
2	3	2	4	1	46	
6	1	6	2	1	50	
6	1	0	4	1	50	
1	5	5	4	1	47	
2	4	5	4	1	48	
3	3	2	1	1	51	
2	2	2	1	1	51	
4	0	1	3	1	51	
0	0	0	0	0	
